param S := 3;
param D := 3;
param N := 5;


param demand: 
        1   2   3  :=
    1   1   2   1
    2   1   1   1
    3   2   1   1  ;
    
    
param workhours_limit :=
    1   17
    2   10
    3   24
    4   24
    5   24 ;
    
    
param vacation:
       1  2  3  4  5  := 
    1  1  0  0  0  0
    2  0  0  0  0  0
    3  0  1  0  0  0 ;
    
    
param preferred_companions:
        1   2   3   4   5  :=
    1   0   0   1   0   0
    2   0   0   0   1   0
    3   0   0   0   0   0
    4   0   0   0   0   0
    5   0   0   0   0   0 ;
    

param unpreferred_companions:
        1   2   3   4   5  :=
    1   0   0   0   0   0
    2   0   0   0   0   0
    3   0   0   0   0   0
    4   1   0   0   0   0
    5   1   0   0   0   0 ;


param preferred_slots:=
[*,*,1]: 1   2   3     :=
     1   0   0   1   
     2   0   0   0   
     3   0   1   0   
     4   0   0   1  
     5   0   0   0 	
[*,*,2]: 1   2   3     :=
     1   0   0   0   
     2   1   0   0   
     3   0   0   0   
     4   0   0   0  
     5   0   0   1 	
[*,*,3]: 1   2   3     :=
     1   0   0   0   
     2   0   0   0   
     3   0   1   0   
     4   0   1   0  
     5   0   0   0 	;
     
     
param unpreferred_slots:=
[*,*,1]: 1   2   3     :=
     1   0   1   0   
     2   0   0   0   
     3   1   0   0   
     4   0   0   0  
     5   0   0   1 	
[*,*,2]: 1   2   3     :=
     1   0   0   0   
     2   0   0   1   
     3   0   0   0   
     4   0   0   0  
     5   0   1   0 	
[*,*,3]: 1   2   3     :=
     1   0   0   0   
     2   0   0   1   
     3   0   0   0   
     4   1   0   0  
     5   0   0   0 	;
